************************************************************************
file with basedata            : mm58_.bas
initial value random generator: 2048606670
************************************************************************
projects                      :  1
jobs (incl. supersource/sink ):  12
horizon                       :  91
RESOURCES
  - renewable                 :  2   R
  - nonrenewable              :  2   N
  - doubly constrained        :  0   D
************************************************************************
PROJECT INFORMATION:
pronr.  #jobs rel.date duedate tardcost  MPM-Time
    1     10      0       13        9       13
************************************************************************
PRECEDENCE RELATIONS:
jobnr.    #modes  #successors   successors
   0        1          3           1   2   3
   1        3          2           6   7
   2        3          3           5   6   7
   3        3          3           4   6   9
   4        3          1          10
   5        3          1           9
   6        3          1           8
   7        3          1          10
   8        3          1          11
   9        3          1          11
  10        3          1          11
  11        1          0        
************************************************************************
REQUESTS/DURATIONS:
jobnr. mode duration  R 1  R 2  R 3  R 4  E(W 1)  E(W 2)  E(W 3)
------------------------------------------------------------------------
  0      1     0       0    0    0    0     0       0       0
  1      1     1       8    6    8    0    14       8       0
  2      1     3       8    4    0    7    36       0      21
  3      1     2       2   10    0    3    24       0       6
  4      1     4       8    8    8    0    64      32       0
  5      1     2       6    6    0    9    24       0      18
  6      1     2       2    8    0    7    20       0      14
  7      1     4       7    2    8    0    36      32       0
  8      1     8       2    6    0    7    64       0      56
  9      1     7       7    6    0    8    91       0      56
 10      1     5       3   10    6    0    65      30       0
 11      1     0       0    0    0    0     0       0       0
************************************************************************
RESOURCEAVAILABILITIES:
  R 1  R 2  R 3
   48   22   37
************************************************************************
RESOURCE LIMITS:
jobnr.  l(R 1)  u(R 1)  l(R 2)  u(R 2)  l(R 3)  u(R 3)
------------------------------------------------------------------------
  0        0       0       0       0       0       0
  1        7      14       4       8       0       0
  2        6      12       0       0       4       7
  3        6      12       0       0       2       3
  4        8      16       4       8       0       0
  5        6      12       0       0       5       9
  6        5      10       0       0       4       7
  7        5       9       4       8       0       0
  8        4       8       0       0       4       7
  9        7      13       0       0       4       8
 10        7      13       3       6       0       0
 11        0       0       0       0       0       0
************************************************************************
SCENARIOS:
------------------------------------------------------------------------
RESOURCE k = 1
s = 1: (0, 15, 22, 21, 68, 23, 17, 29, 61, 86, 57, 0)
s = 2: (0, 21, 57, 27, 70, 30, 29, 36, 38, 85, 77, 0)
s = 3: (0, 15, 42, 16, 61, 18, 24, 47, 54, 84, 53, 0)
s = 4: (0, 15, 27, 21, 65, 18, 26, 26, 91, 105, 92, 0)
s = 5: (0, 9, 22, 22, 42, 18, 17, 59, 91, 105, 69, 0)
s = 6: (0, 12, 24, 28, 58, 30, 27, 30, 58, 71, 99, 0)
s = 7: (0, 21, 41, 20, 71, 13, 32, 55, 95, 48, 81, 0)
s = 8: (0, 15, 38, 28, 45, 32, 13, 29, 82, 79, 65, 0)
s = 9: (0, 11, 53, 31, 86, 23, 11, 37, 61, 110, 65, 0)
s = 10: (0, 11, 47, 25, 44, 28, 12, 34, 44, 56, 53, 0)
s = 11: (0, 23, 30, 28, 85, 29, 33, 30, 73, 106, 51, 0)
s = 12: (0, 16, 57, 22, 45, 14, 26, 27, 55, 59, 58, 0)
s = 13: (0, 11, 60, 17, 55, 28, 14, 35, 55, 104, 66, 0)
s = 14: (0, 11, 34, 24, 47, 39, 21, 35, 35, 58, 47, 0)
s = 15: (0, 15, 40, 19, 78, 21, 17, 35, 84, 102, 40, 0)
s = 16: (0, 18, 53, 26, 97, 32, 15, 24, 52, 94, 48, 0)
s = 17: (0, 19, 29, 26, 70, 19, 24, 27, 58, 93, 67, 0)
s = 18: (0, 10, 51, 23, 48, 29, 17, 30, 44, 92, 53, 0)
s = 19: (0, 14, 35, 15, 52, 15, 18, 46, 79, 117, 47, 0)
s = 20: (0, 11, 26, 25, 54, 16, 15, 39, 55, 123, 62, 0)
s = 21: (0, 13, 34, 23, 52, 23, 20, 29, 50, 89, 44, 0)
s = 22: (0, 12, 26, 19, 67, 19, 29, 29, 60, 124, 39, 0)
s = 23: (0, 14, 33, 31, 79, 37, 22, 30, 51, 60, 53, 0)
s = 24: (0, 15, 45, 18, 62, 33, 18, 28, 68, 110, 75, 0)
s = 25: (0, 12, 31, 21, 85, 38, 18, 65, 53, 54, 50, 0)
s = 26: (0, 21, 47, 28, 67, 22, 22, 36, 77, 102, 70, 0)
s = 27: (0, 16, 32, 31, 41, 26, 28, 33, 100, 61, 54, 0)
s = 28: (0, 14, 34, 22, 76, 35, 18, 41, 58, 62, 56, 0)
s = 29: (0, 10, 43, 20, 51, 20, 26, 38, 75, 53, 51, 0)
s = 30: (0, 17, 42, 27, 84, 28, 24, 33, 82, 70, 60, 0)
s = 31: (0, 20, 59, 14, 53, 31, 24, 19, 56, 83, 57, 0)
s = 32: (0, 23, 34, 31, 52, 24, 15, 27, 44, 83, 95, 0)
s = 33: (0, 14, 36, 27, 93, 22, 13, 35, 35, 56, 84, 0)
s = 34: (0, 26, 31, 16, 65, 19, 22, 46, 60, 65, 39, 0)
s = 35: (0, 8, 55, 22, 60, 18, 18, 19, 83, 113, 89, 0)
s = 36: (0, 21, 34, 16, 39, 28, 20, 47, 56, 103, 57, 0)
s = 37: (0, 17, 27, 13, 67, 25, 26, 32, 45, 103, 87, 0)
s = 38: (0, 18, 49, 22, 59, 27, 16, 22, 68, 118, 49, 0)
s = 39: (0, 14, 45, 18, 47, 38, 17, 36, 106, 119, 62, 0)
s = 40: (0, 11, 48, 26, 38, 33, 15, 24, 76, 108, 86, 0)
s = 41: (0, 18, 50, 18, 83, 18, 18, 47, 130, 114, 69, 0)
s = 42: (0, 11, 23, 40, 94, 25, 18, 46, 62, 119, 57, 0)
s = 43: (0, 9, 34, 23, 37, 20, 14, 29, 53, 71, 52, 0)
s = 44: (0, 14, 50, 22, 66, 19, 16, 21, 76, 119, 62, 0)
s = 45: (0, 11, 31, 21, 61, 18, 20, 28, 93, 129, 46, 0)
s = 46: (0, 15, 36, 26, 83, 19, 22, 23, 45, 113, 40, 0)
s = 47: (0, 11, 27, 16, 86, 25, 13, 40, 46, 107, 71, 0)
s = 48: (0, 21, 43, 19, 77, 25, 16, 24, 61, 82, 69, 0)
s = 49: (0, 13, 49, 24, 50, 22, 18, 34, 80, 83, 56, 0)
s = 50: (0, 11, 32, 22, 59, 22, 13, 46, 73, 124, 45, 0)
s = 51: (0, 19, 36, 27, 71, 35, 22, 30, 97, 103, 98, 0)
s = 52: (0, 16, 36, 27, 48, 18, 13, 35, 73, 143, 49, 0)
s = 53: (0, 12, 34, 20, 63, 25, 25, 44, 57, 80, 91, 0)
s = 54: (0, 13, 23, 29, 42, 24, 20, 51, 105, 82, 88, 0)
s = 55: (0, 10, 42, 31, 90, 20, 17, 22, 56, 84, 62, 0)
s = 56: (0, 19, 33, 29, 51, 25, 15, 45, 42, 85, 45, 0)
s = 57: (0, 12, 33, 26, 55, 21, 26, 50, 42, 57, 68, 0)
s = 58: (0, 19, 32, 38, 47, 26, 22, 38, 66, 168, 93, 0)
s = 59: (0, 19, 38, 33, 75, 30, 35, 47, 43, 60, 57, 0)
s = 60: (0, 15, 22, 25, 50, 21, 30, 30, 74, 78, 66, 0)
s = 61: (0, 22, 36, 21, 56, 18, 30, 42, 92, 61, 44, 0)
s = 62: (0, 13, 44, 18, 57, 30, 17, 41, 40, 96, 110, 0)
s = 63: (0, 10, 45, 28, 85, 28, 13, 31, 88, 112, 56, 0)
s = 64: (0, 12, 39, 38, 56, 20, 30, 46, 36, 129, 60, 0)
s = 65: (0, 11, 52, 20, 73, 29, 16, 37, 43, 135, 35, 0)
s = 66: (0, 18, 21, 19, 57, 17, 18, 27, 82, 102, 59, 0)
s = 67: (0, 12, 27, 27, 50, 23, 25, 28, 62, 99, 47, 0)
s = 68: (0, 9, 40, 33, 64, 33, 14, 37, 65, 75, 48, 0)
s = 69: (0, 8, 44, 33, 78, 25, 19, 40, 68, 68, 61, 0)
s = 70: (0, 13, 43, 18, 87, 21, 24, 46, 48, 83, 43, 0)
s = 71: (0, 12, 43, 36, 73, 26, 18, 26, 63, 59, 102, 0)
s = 72: (0, 18, 34, 20, 93, 34, 20, 66, 99, 103, 87, 0)
s = 73: (0, 17, 30, 33, 73, 21, 12, 62, 61, 143, 71, 0)
s = 74: (0, 12, 27, 31, 63, 27, 26, 35, 65, 117, 73, 0)
s = 75: (0, 16, 25, 18, 50, 22, 20, 43, 72, 97, 123, 0)
s = 76: (0, 12, 52, 32, 86, 22, 15, 34, 70, 122, 103, 0)
s = 77: (0, 13, 28, 26, 67, 19, 14, 37, 80, 88, 73, 0)
s = 78: (0, 15, 24, 27, 95, 24, 18, 36, 93, 81, 55, 0)
s = 79: (0, 9, 45, 35, 50, 18, 14, 26, 51, 82, 79, 0)
s = 80: (0, 18, 24, 29, 61, 24, 15, 32, 41, 115, 41, 0)
s = 81: (0, 14, 26, 28, 99, 40, 20, 50, 84, 100, 48, 0)
s = 82: (0, 26, 24, 19, 58, 16, 18, 42, 88, 76, 85, 0)
s = 83: (0, 10, 29, 31, 51, 31, 25, 45, 65, 106, 40, 0)
s = 84: (0, 15, 28, 17, 41, 37, 14, 56, 55, 73, 82, 0)
s = 85: (0, 12, 38, 26, 84, 15, 24, 30, 78, 56, 71, 0)
s = 86: (0, 21, 30, 27, 72, 37, 30, 30, 75, 68, 51, 0)
s = 87: (0, 17, 28, 18, 69, 24, 25, 28, 67, 93, 39, 0)
s = 88: (0, 14, 45, 30, 65, 25, 21, 33, 56, 103, 87, 0)
s = 89: (0, 17, 38, 22, 63, 29, 17, 40, 42, 120, 72, 0)
s = 90: (0, 19, 21, 19, 74, 20, 26, 30, 53, 68, 45, 0)
s = 91: (0, 19, 22, 26, 55, 25, 18, 41, 40, 116, 81, 0)
s = 92: (0, 16, 36, 17, 42, 31, 18, 43, 80, 87, 43, 0)
s = 93: (0, 13, 19, 16, 78, 33, 14, 32, 35, 96, 93, 0)
s = 94: (0, 11, 45, 18, 62, 22, 20, 30, 94, 79, 115, 0)
s = 95: (0, 12, 26, 23, 59, 29, 15, 45, 72, 69, 50, 0)
s = 96: (0, 14, 42, 17, 86, 36, 21, 46, 62, 106, 61, 0)
s = 97: (0, 24, 41, 24, 45, 19, 26, 27, 38, 59, 46, 0)
s = 98: (0, 26, 40, 41, 58, 26, 18, 33, 71, 111, 59, 0)
s = 99: (0, 14, 45, 17, 60, 25, 15, 35, 51, 80, 70, 0)
s = 100: (0, 12, 31, 15, 86, 16, 34, 27, 80, 90, 80, 0)
s = 101: (0, 17, 32, 27, 100, 30, 18, 26, 52, 52, 49, 0)
s = 102: (0, 8, 29, 20, 110, 37, 18, 24, 57, 119, 68, 0)
s = 103: (0, 10, 51, 28, 62, 29, 18, 31, 67, 69, 102, 0)
s = 104: (0, 19, 47, 29, 95, 30, 17, 29, 64, 99, 77, 0)
s = 105: (0, 13, 38, 27, 85, 36, 28, 36, 33, 89, 64, 0)
s = 106: (0, 10, 36, 24, 71, 27, 18, 34, 41, 75, 79, 0)
s = 107: (0, 11, 40, 25, 47, 23, 15, 33, 72, 101, 45, 0)
s = 108: (0, 13, 34, 30, 43, 16, 24, 40, 50, 118, 63, 0)
s = 109: (0, 10, 35, 29, 45, 23, 19, 22, 79, 77, 65, 0)
s = 110: (0, 15, 27, 34, 60, 27, 20, 34, 96, 59, 82, 0)
s = 111: (0, 11, 33, 24, 101, 18, 21, 31, 84, 98, 60, 0)
s = 112: (0, 9, 42, 22, 70, 31, 11, 35, 50, 78, 67, 0)
s = 113: (0, 13, 40, 20, 72, 22, 19, 49, 37, 80, 55, 0)
s = 114: (0, 12, 19, 34, 46, 17, 33, 40, 65, 120, 39, 0)
s = 115: (0, 12, 34, 23, 63, 18, 37, 43, 61, 86, 56, 0)
s = 116: (0, 9, 34, 20, 62, 33, 19, 27, 59, 136, 42, 0)
s = 117: (0, 15, 31, 25, 86, 41, 17, 68, 58, 88, 75, 0)
s = 118: (0, 13, 34, 17, 59, 24, 28, 22, 94, 118, 41, 0)
s = 119: (0, 14, 38, 27, 95, 29, 21, 39, 71, 68, 61, 0)
s = 120: (0, 17, 25, 16, 78, 21, 19, 28, 84, 114, 44, 0)
s = 121: (0, 10, 26, 33, 43, 34, 22, 59, 79, 51, 41, 0)
s = 122: (0, 17, 21, 20, 51, 37, 14, 21, 42, 69, 72, 0)
s = 123: (0, 17, 24, 19, 64, 19, 26, 35, 52, 115, 70, 0)
s = 124: (0, 14, 26, 23, 67, 18, 24, 46, 51, 92, 44, 0)
s = 125: (0, 11, 38, 31, 58, 36, 11, 21, 62, 76, 64, 0)
s = 126: (0, 22, 54, 22, 70, 30, 11, 32, 67, 85, 91, 0)
s = 127: (0, 14, 47, 17, 70, 14, 31, 25, 72, 81, 61, 0)
s = 128: (0, 20, 34, 26, 52, 13, 34, 49, 74, 126, 83, 0)
s = 129: (0, 12, 34, 35, 39, 25, 13, 52, 79, 94, 73, 0)
s = 130: (0, 15, 40, 18, 55, 27, 14, 34, 58, 139, 65, 0)
s = 131: (0, 12, 47, 27, 93, 27, 22, 28, 49, 49, 38, 0)
s = 132: (0, 22, 45, 24, 74, 33, 26, 32, 54, 111, 77, 0)
s = 133: (0, 13, 49, 38, 64, 22, 31, 35, 52, 75, 77, 0)
s = 134: (0, 20, 47, 26, 50, 22, 12, 25, 123, 62, 56, 0)
s = 135: (0, 16, 52, 15, 50, 20, 16, 24, 114, 132, 94, 0)
s = 136: (0, 14, 24, 19, 90, 26, 22, 35, 38, 95, 66, 0)
s = 137: (0, 18, 53, 21, 78, 25, 24, 37, 69, 91, 85, 0)
s = 138: (0, 22, 54, 29, 46, 20, 18, 37, 43, 77, 44, 0)
s = 139: (0, 9, 25, 14, 48, 15, 19, 35, 53, 105, 45, 0)
s = 140: (0, 20, 31, 44, 55, 23, 11, 31, 95, 99, 88, 0)
s = 141: (0, 14, 45, 20, 62, 24, 19, 47, 93, 87, 57, 0)
s = 142: (0, 20, 38, 23, 79, 31, 24, 43, 65, 75, 67, 0)
s = 143: (0, 24, 39, 18, 70, 35, 17, 38, 37, 94, 69, 0)
s = 144: (0, 19, 21, 16, 82, 26, 29, 33, 53, 71, 58, 0)
s = 145: (0, 9, 45, 22, 38, 22, 15, 38, 62, 75, 47, 0)
s = 146: (0, 18, 30, 22, 65, 25, 18, 56, 62, 92, 46, 0)
s = 147: (0, 20, 28, 27, 81, 31, 14, 48, 57, 146, 81, 0)
s = 148: (0, 10, 39, 32, 50, 28, 19, 26, 104, 175, 109, 0)
s = 149: (0, 15, 43, 14, 95, 22, 17, 53, 53, 93, 77, 0)
s = 150: (0, 14, 27, 23, 87, 20, 28, 26, 94, 81, 44, 0)
s = 151: (0, 13, 28, 21, 47, 23, 15, 28, 86, 110, 63, 0)
s = 152: (0, 10, 21, 31, 36, 21, 16, 33, 41, 98, 53, 0)
s = 153: (0, 11, 40, 25, 78, 21, 15, 30, 55, 72, 64, 0)
s = 154: (0, 10, 43, 22, 96, 15, 28, 51, 40, 108, 38, 0)
s = 155: (0, 15, 39, 29, 65, 19, 18, 47, 45, 102, 80, 0)
s = 156: (0, 14, 33, 41, 82, 21, 20, 22, 36, 104, 53, 0)
s = 157: (0, 14, 44, 20, 84, 20, 18, 21, 75, 119, 51, 0)
s = 158: (0, 16, 29, 31, 64, 23, 16, 26, 46, 72, 54, 0)
s = 159: (0, 22, 65, 38, 97, 22, 23, 36, 87, 84, 46, 0)
s = 160: (0, 21, 27, 29, 61, 26, 27, 30, 41, 100, 69, 0)
s = 161: (0, 10, 45, 26, 48, 35, 22, 27, 55, 90, 37, 0)
s = 162: (0, 16, 33, 24, 45, 32, 13, 38, 100, 71, 58, 0)
s = 163: (0, 12, 39, 25, 78, 27, 20, 35, 50, 102, 51, 0)
s = 164: (0, 18, 35, 19, 56, 29, 12, 38, 53, 62, 56, 0)
s = 165: (0, 14, 33, 20, 85, 18, 21, 25, 73, 130, 74, 0)
s = 166: (0, 19, 76, 34, 48, 28, 16, 38, 68, 150, 53, 0)
s = 167: (0, 10, 22, 24, 52, 33, 17, 43, 86, 47, 37, 0)
s = 168: (0, 10, 30, 18, 50, 23, 18, 29, 70, 99, 84, 0)
s = 169: (0, 18, 42, 18, 66, 13, 25, 58, 42, 98, 101, 0)
s = 170: (0, 18, 54, 19, 60, 31, 31, 38, 53, 72, 58, 0)
s = 171: (0, 10, 42, 27, 61, 21, 20, 27, 83, 117, 61, 0)
s = 172: (0, 18, 37, 16, 51, 34, 26, 51, 40, 68, 79, 0)
s = 173: (0, 14, 26, 29, 97, 20, 22, 20, 39, 152, 87, 0)
s = 174: (0, 12, 47, 23, 56, 19, 24, 36, 48, 69, 54, 0)
s = 175: (0, 13, 26, 16, 77, 27, 18, 23, 78, 108, 74, 0)
s = 176: (0, 22, 38, 37, 80, 33, 20, 30, 51, 73, 76, 0)
s = 177: (0, 15, 37, 39, 76, 23, 20, 37, 107, 131, 45, 0)
s = 178: (0, 15, 57, 34, 56, 24, 23, 37, 50, 144, 40, 0)
s = 179: (0, 19, 34, 27, 123, 13, 20, 22, 65, 119, 75, 0)
s = 180: (0, 20, 32, 15, 78, 25, 15, 43, 78, 101, 53, 0)
s = 181: (0, 13, 38, 20, 72, 15, 24, 53, 78, 67, 85, 0)
s = 182: (0, 11, 46, 18, 70, 21, 21, 38, 92, 91, 59, 0)
s = 183: (0, 21, 37, 21, 42, 31, 12, 37, 60, 79, 59, 0)
s = 184: (0, 10, 32, 31, 55, 25, 27, 19, 60, 83, 75, 0)
s = 185: (0, 9, 37, 25, 46, 30, 17, 30, 65, 78, 45, 0)
s = 186: (0, 10, 25, 46, 61, 19, 36, 35, 43, 71, 91, 0)
s = 187: (0, 21, 28, 35, 35, 28, 17, 31, 67, 134, 58, 0)
s = 188: (0, 12, 33, 29, 60, 30, 24, 45, 59, 129, 91, 0)
s = 189: (0, 14, 50, 30, 52, 25, 28, 62, 57, 58, 97, 0)
s = 190: (0, 18, 31, 34, 44, 33, 17, 28, 47, 102, 48, 0)
s = 191: (0, 11, 40, 16, 42, 22, 27, 42, 73, 90, 52, 0)
s = 192: (0, 14, 27, 19, 111, 29, 20, 45, 50, 130, 79, 0)
s = 193: (0, 13, 59, 17, 42, 25, 25, 41, 69, 110, 71, 0)
s = 194: (0, 10, 47, 31, 79, 23, 20, 49, 100, 70, 62, 0)
s = 195: (0, 13, 27, 27, 103, 26, 27, 28, 41, 101, 55, 0)
s = 196: (0, 9, 24, 25, 49, 26, 21, 45, 90, 65, 81, 0)
s = 197: (0, 13, 28, 24, 70, 24, 16, 28, 70, 142, 71, 0)
s = 198: (0, 13, 32, 23, 61, 16, 24, 48, 49, 56, 38, 0)
s = 199: (0, 12, 25, 37, 87, 16, 32, 32, 93, 117, 51, 0)
s = 200: (0, 14, 30, 29, 102, 21, 14, 32, 62, 59, 72, 0)
------------------------------------------------------------------------
RESOURCE k = 2
s = 1: (0, 9, 0, 0, 34, 0, 0, 26, 0, 0, 27, 0)
s = 2: (0, 12, 0, 0, 35, 0, 0, 32, 0, 0, 36, 0)
s = 3: (0, 9, 0, 0, 31, 0, 0, 42, 0, 0, 25, 0)
s = 4: (0, 9, 0, 0, 33, 0, 0, 23, 0, 0, 43, 0)
s = 5: (0, 6, 0, 0, 21, 0, 0, 52, 0, 0, 32, 0)
s = 6: (0, 7, 0, 0, 29, 0, 0, 26, 0, 0, 46, 0)
s = 7: (0, 12, 0, 0, 36, 0, 0, 49, 0, 0, 38, 0)
s = 8: (0, 9, 0, 0, 23, 0, 0, 26, 0, 0, 30, 0)
s = 9: (0, 6, 0, 0, 43, 0, 0, 33, 0, 0, 30, 0)
s = 10: (0, 7, 0, 0, 22, 0, 0, 31, 0, 0, 25, 0)
s = 11: (0, 13, 0, 0, 43, 0, 0, 26, 0, 0, 24, 0)
s = 12: (0, 10, 0, 0, 23, 0, 0, 24, 0, 0, 27, 0)
s = 13: (0, 7, 0, 0, 28, 0, 0, 31, 0, 0, 31, 0)
s = 14: (0, 7, 0, 0, 24, 0, 0, 32, 0, 0, 22, 0)
s = 15: (0, 9, 0, 0, 39, 0, 0, 31, 0, 0, 19, 0)
s = 16: (0, 11, 0, 0, 49, 0, 0, 21, 0, 0, 23, 0)
s = 17: (0, 11, 0, 0, 35, 0, 0, 24, 0, 0, 31, 0)
s = 18: (0, 6, 0, 0, 24, 0, 0, 26, 0, 0, 25, 0)
s = 19: (0, 8, 0, 0, 26, 0, 0, 41, 0, 0, 22, 0)
s = 20: (0, 7, 0, 0, 27, 0, 0, 35, 0, 0, 29, 0)
s = 21: (0, 8, 0, 0, 26, 0, 0, 26, 0, 0, 21, 0)
s = 22: (0, 7, 0, 0, 34, 0, 0, 26, 0, 0, 18, 0)
s = 23: (0, 8, 0, 0, 40, 0, 0, 27, 0, 0, 25, 0)
s = 24: (0, 9, 0, 0, 31, 0, 0, 25, 0, 0, 35, 0)
s = 25: (0, 7, 0, 0, 43, 0, 0, 58, 0, 0, 23, 0)
s = 26: (0, 12, 0, 0, 34, 0, 0, 32, 0, 0, 33, 0)
s = 27: (0, 9, 0, 0, 21, 0, 0, 30, 0, 0, 25, 0)
s = 28: (0, 8, 0, 0, 38, 0, 0, 36, 0, 0, 26, 0)
s = 29: (0, 6, 0, 0, 26, 0, 0, 34, 0, 0, 24, 0)
s = 30: (0, 10, 0, 0, 42, 0, 0, 29, 0, 0, 28, 0)
s = 31: (0, 11, 0, 0, 27, 0, 0, 17, 0, 0, 27, 0)
s = 32: (0, 13, 0, 0, 26, 0, 0, 24, 0, 0, 44, 0)
s = 33: (0, 8, 0, 0, 47, 0, 0, 31, 0, 0, 39, 0)
s = 34: (0, 15, 0, 0, 33, 0, 0, 41, 0, 0, 18, 0)
s = 35: (0, 5, 0, 0, 30, 0, 0, 17, 0, 0, 41, 0)
s = 36: (0, 12, 0, 0, 20, 0, 0, 41, 0, 0, 26, 0)
s = 37: (0, 10, 0, 0, 34, 0, 0, 28, 0, 0, 40, 0)
s = 38: (0, 11, 0, 0, 30, 0, 0, 20, 0, 0, 23, 0)
s = 39: (0, 8, 0, 0, 24, 0, 0, 32, 0, 0, 29, 0)
s = 40: (0, 6, 0, 0, 19, 0, 0, 21, 0, 0, 40, 0)
s = 41: (0, 11, 0, 0, 42, 0, 0, 42, 0, 0, 32, 0)
s = 42: (0, 6, 0, 0, 47, 0, 0, 41, 0, 0, 27, 0)
s = 43: (0, 5, 0, 0, 19, 0, 0, 26, 0, 0, 24, 0)
s = 44: (0, 8, 0, 0, 33, 0, 0, 19, 0, 0, 29, 0)
s = 45: (0, 7, 0, 0, 31, 0, 0, 25, 0, 0, 22, 0)
s = 46: (0, 9, 0, 0, 42, 0, 0, 21, 0, 0, 19, 0)
s = 47: (0, 6, 0, 0, 43, 0, 0, 35, 0, 0, 33, 0)
s = 48: (0, 12, 0, 0, 39, 0, 0, 22, 0, 0, 32, 0)
s = 49: (0, 8, 0, 0, 25, 0, 0, 31, 0, 0, 26, 0)
s = 50: (0, 6, 0, 0, 30, 0, 0, 41, 0, 0, 21, 0)
s = 51: (0, 11, 0, 0, 36, 0, 0, 26, 0, 0, 46, 0)
s = 52: (0, 9, 0, 0, 24, 0, 0, 31, 0, 0, 23, 0)
s = 53: (0, 7, 0, 0, 32, 0, 0, 39, 0, 0, 42, 0)
s = 54: (0, 7, 0, 0, 21, 0, 0, 45, 0, 0, 41, 0)
s = 55: (0, 6, 0, 0, 45, 0, 0, 20, 0, 0, 29, 0)
s = 56: (0, 11, 0, 0, 26, 0, 0, 40, 0, 0, 21, 0)
s = 57: (0, 7, 0, 0, 28, 0, 0, 45, 0, 0, 32, 0)
s = 58: (0, 11, 0, 0, 24, 0, 0, 34, 0, 0, 43, 0)
s = 59: (0, 11, 0, 0, 38, 0, 0, 42, 0, 0, 27, 0)
s = 60: (0, 9, 0, 0, 25, 0, 0, 26, 0, 0, 31, 0)
s = 61: (0, 13, 0, 0, 28, 0, 0, 38, 0, 0, 21, 0)
s = 62: (0, 8, 0, 0, 29, 0, 0, 36, 0, 0, 51, 0)
s = 63: (0, 6, 0, 0, 43, 0, 0, 27, 0, 0, 26, 0)
s = 64: (0, 7, 0, 0, 28, 0, 0, 41, 0, 0, 28, 0)
s = 65: (0, 7, 0, 0, 37, 0, 0, 33, 0, 0, 16, 0)
s = 66: (0, 11, 0, 0, 29, 0, 0, 24, 0, 0, 27, 0)
s = 67: (0, 7, 0, 0, 25, 0, 0, 25, 0, 0, 22, 0)
s = 68: (0, 5, 0, 0, 32, 0, 0, 33, 0, 0, 22, 0)
s = 69: (0, 5, 0, 0, 39, 0, 0, 35, 0, 0, 29, 0)
s = 70: (0, 7, 0, 0, 44, 0, 0, 41, 0, 0, 20, 0)
s = 71: (0, 7, 0, 0, 37, 0, 0, 23, 0, 0, 47, 0)
s = 72: (0, 11, 0, 0, 47, 0, 0, 59, 0, 0, 41, 0)
s = 73: (0, 10, 0, 0, 37, 0, 0, 55, 0, 0, 33, 0)
s = 74: (0, 7, 0, 0, 32, 0, 0, 31, 0, 0, 34, 0)
s = 75: (0, 10, 0, 0, 25, 0, 0, 39, 0, 0, 57, 0)
s = 76: (0, 7, 0, 0, 43, 0, 0, 30, 0, 0, 48, 0)
s = 77: (0, 8, 0, 0, 34, 0, 0, 33, 0, 0, 34, 0)
s = 78: (0, 9, 0, 0, 48, 0, 0, 32, 0, 0, 26, 0)
s = 79: (0, 5, 0, 0, 25, 0, 0, 23, 0, 0, 37, 0)
s = 80: (0, 11, 0, 0, 31, 0, 0, 29, 0, 0, 19, 0)
s = 81: (0, 8, 0, 0, 50, 0, 0, 44, 0, 0, 22, 0)
s = 82: (0, 15, 0, 0, 29, 0, 0, 37, 0, 0, 40, 0)
s = 83: (0, 6, 0, 0, 26, 0, 0, 40, 0, 0, 19, 0)
s = 84: (0, 9, 0, 0, 21, 0, 0, 50, 0, 0, 38, 0)
s = 85: (0, 7, 0, 0, 42, 0, 0, 27, 0, 0, 33, 0)
s = 86: (0, 12, 0, 0, 36, 0, 0, 27, 0, 0, 24, 0)
s = 87: (0, 10, 0, 0, 35, 0, 0, 25, 0, 0, 18, 0)
s = 88: (0, 8, 0, 0, 33, 0, 0, 29, 0, 0, 41, 0)
s = 89: (0, 10, 0, 0, 32, 0, 0, 36, 0, 0, 33, 0)
s = 90: (0, 11, 0, 0, 37, 0, 0, 27, 0, 0, 21, 0)
s = 91: (0, 11, 0, 0, 28, 0, 0, 36, 0, 0, 38, 0)
s = 92: (0, 9, 0, 0, 21, 0, 0, 38, 0, 0, 20, 0)
s = 93: (0, 8, 0, 0, 39, 0, 0, 29, 0, 0, 43, 0)
s = 94: (0, 6, 0, 0, 31, 0, 0, 27, 0, 0, 53, 0)
s = 95: (0, 7, 0, 0, 30, 0, 0, 40, 0, 0, 23, 0)
s = 96: (0, 8, 0, 0, 43, 0, 0, 41, 0, 0, 29, 0)
s = 97: (0, 14, 0, 0, 23, 0, 0, 24, 0, 0, 22, 0)
s = 98: (0, 15, 0, 0, 29, 0, 0, 29, 0, 0, 27, 0)
s = 99: (0, 8, 0, 0, 30, 0, 0, 31, 0, 0, 33, 0)
s = 100: (0, 7, 0, 0, 43, 0, 0, 24, 0, 0, 37, 0)
s = 101: (0, 10, 0, 0, 50, 0, 0, 24, 0, 0, 23, 0)
s = 102: (0, 5, 0, 0, 55, 0, 0, 21, 0, 0, 32, 0)
s = 103: (0, 6, 0, 0, 31, 0, 0, 27, 0, 0, 47, 0)
s = 104: (0, 11, 0, 0, 48, 0, 0, 26, 0, 0, 36, 0)
s = 105: (0, 8, 0, 0, 43, 0, 0, 32, 0, 0, 30, 0)
s = 106: (0, 6, 0, 0, 36, 0, 0, 30, 0, 0, 37, 0)
s = 107: (0, 6, 0, 0, 24, 0, 0, 30, 0, 0, 21, 0)
s = 108: (0, 7, 0, 0, 22, 0, 0, 35, 0, 0, 30, 0)
s = 109: (0, 6, 0, 0, 23, 0, 0, 20, 0, 0, 30, 0)
s = 110: (0, 9, 0, 0, 30, 0, 0, 30, 0, 0, 38, 0)
s = 111: (0, 6, 0, 0, 51, 0, 0, 28, 0, 0, 28, 0)
s = 112: (0, 5, 0, 0, 35, 0, 0, 31, 0, 0, 31, 0)
s = 113: (0, 8, 0, 0, 36, 0, 0, 44, 0, 0, 26, 0)
s = 114: (0, 7, 0, 0, 23, 0, 0, 35, 0, 0, 18, 0)
s = 115: (0, 7, 0, 0, 32, 0, 0, 38, 0, 0, 26, 0)
s = 116: (0, 6, 0, 0, 31, 0, 0, 24, 0, 0, 20, 0)
s = 117: (0, 9, 0, 0, 43, 0, 0, 60, 0, 0, 35, 0)
s = 118: (0, 8, 0, 0, 30, 0, 0, 20, 0, 0, 19, 0)
s = 119: (0, 8, 0, 0, 48, 0, 0, 35, 0, 0, 28, 0)
s = 120: (0, 10, 0, 0, 39, 0, 0, 25, 0, 0, 20, 0)
s = 121: (0, 6, 0, 0, 22, 0, 0, 53, 0, 0, 19, 0)
s = 122: (0, 10, 0, 0, 26, 0, 0, 19, 0, 0, 33, 0)
s = 123: (0, 10, 0, 0, 32, 0, 0, 32, 0, 0, 33, 0)
s = 124: (0, 8, 0, 0, 34, 0, 0, 41, 0, 0, 20, 0)
s = 125: (0, 7, 0, 0, 29, 0, 0, 19, 0, 0, 30, 0)
s = 126: (0, 13, 0, 0, 35, 0, 0, 28, 0, 0, 42, 0)
s = 127: (0, 8, 0, 0, 35, 0, 0, 22, 0, 0, 29, 0)
s = 128: (0, 11, 0, 0, 26, 0, 0, 43, 0, 0, 39, 0)
s = 129: (0, 7, 0, 0, 20, 0, 0, 47, 0, 0, 34, 0)
s = 130: (0, 9, 0, 0, 28, 0, 0, 30, 0, 0, 30, 0)
s = 131: (0, 7, 0, 0, 47, 0, 0, 25, 0, 0, 18, 0)
s = 132: (0, 13, 0, 0, 37, 0, 0, 29, 0, 0, 36, 0)
s = 133: (0, 8, 0, 0, 32, 0, 0, 31, 0, 0, 36, 0)
s = 134: (0, 12, 0, 0, 25, 0, 0, 22, 0, 0, 26, 0)
s = 135: (0, 10, 0, 0, 25, 0, 0, 21, 0, 0, 44, 0)
s = 136: (0, 8, 0, 0, 45, 0, 0, 31, 0, 0, 31, 0)
s = 137: (0, 11, 0, 0, 39, 0, 0, 33, 0, 0, 39, 0)
s = 138: (0, 13, 0, 0, 23, 0, 0, 33, 0, 0, 21, 0)
s = 139: (0, 5, 0, 0, 24, 0, 0, 31, 0, 0, 21, 0)
s = 140: (0, 12, 0, 0, 28, 0, 0, 28, 0, 0, 41, 0)
s = 141: (0, 8, 0, 0, 31, 0, 0, 42, 0, 0, 27, 0)
s = 142: (0, 11, 0, 0, 40, 0, 0, 39, 0, 0, 31, 0)
s = 143: (0, 14, 0, 0, 35, 0, 0, 34, 0, 0, 32, 0)
s = 144: (0, 11, 0, 0, 41, 0, 0, 29, 0, 0, 27, 0)
s = 145: (0, 5, 0, 0, 19, 0, 0, 33, 0, 0, 22, 0)
s = 146: (0, 10, 0, 0, 33, 0, 0, 50, 0, 0, 22, 0)
s = 147: (0, 12, 0, 0, 41, 0, 0, 43, 0, 0, 38, 0)
s = 148: (0, 6, 0, 0, 25, 0, 0, 23, 0, 0, 50, 0)
s = 149: (0, 9, 0, 0, 48, 0, 0, 47, 0, 0, 36, 0)
s = 150: (0, 8, 0, 0, 44, 0, 0, 23, 0, 0, 20, 0)
s = 151: (0, 8, 0, 0, 24, 0, 0, 25, 0, 0, 29, 0)
s = 152: (0, 6, 0, 0, 18, 0, 0, 29, 0, 0, 25, 0)
s = 153: (0, 6, 0, 0, 39, 0, 0, 27, 0, 0, 30, 0)
s = 154: (0, 6, 0, 0, 48, 0, 0, 46, 0, 0, 18, 0)
s = 155: (0, 9, 0, 0, 33, 0, 0, 41, 0, 0, 37, 0)
s = 156: (0, 8, 0, 0, 41, 0, 0, 20, 0, 0, 25, 0)
s = 157: (0, 8, 0, 0, 42, 0, 0, 19, 0, 0, 24, 0)
s = 158: (0, 9, 0, 0, 32, 0, 0, 23, 0, 0, 25, 0)
s = 159: (0, 13, 0, 0, 49, 0, 0, 32, 0, 0, 21, 0)
s = 160: (0, 12, 0, 0, 31, 0, 0, 27, 0, 0, 32, 0)
s = 161: (0, 6, 0, 0, 24, 0, 0, 24, 0, 0, 17, 0)
s = 162: (0, 9, 0, 0, 23, 0, 0, 34, 0, 0, 27, 0)
s = 163: (0, 7, 0, 0, 39, 0, 0, 32, 0, 0, 24, 0)
s = 164: (0, 11, 0, 0, 28, 0, 0, 34, 0, 0, 26, 0)
s = 165: (0, 8, 0, 0, 43, 0, 0, 22, 0, 0, 35, 0)
s = 166: (0, 11, 0, 0, 24, 0, 0, 34, 0, 0, 25, 0)
s = 167: (0, 6, 0, 0, 26, 0, 0, 38, 0, 0, 17, 0)
s = 168: (0, 6, 0, 0, 25, 0, 0, 26, 0, 0, 39, 0)
s = 169: (0, 11, 0, 0, 33, 0, 0, 52, 0, 0, 47, 0)
s = 170: (0, 10, 0, 0, 30, 0, 0, 34, 0, 0, 27, 0)
s = 171: (0, 6, 0, 0, 31, 0, 0, 24, 0, 0, 28, 0)
s = 172: (0, 11, 0, 0, 26, 0, 0, 46, 0, 0, 37, 0)
s = 173: (0, 8, 0, 0, 49, 0, 0, 17, 0, 0, 40, 0)
s = 174: (0, 7, 0, 0, 28, 0, 0, 32, 0, 0, 25, 0)
s = 175: (0, 8, 0, 0, 39, 0, 0, 21, 0, 0, 35, 0)
s = 176: (0, 13, 0, 0, 40, 0, 0, 27, 0, 0, 35, 0)
s = 177: (0, 9, 0, 0, 38, 0, 0, 33, 0, 0, 21, 0)
s = 178: (0, 9, 0, 0, 28, 0, 0, 33, 0, 0, 19, 0)
s = 179: (0, 11, 0, 0, 62, 0, 0, 20, 0, 0, 35, 0)
s = 180: (0, 12, 0, 0, 39, 0, 0, 38, 0, 0, 25, 0)
s = 181: (0, 8, 0, 0, 36, 0, 0, 47, 0, 0, 39, 0)
s = 182: (0, 6, 0, 0, 35, 0, 0, 34, 0, 0, 28, 0)
s = 183: (0, 12, 0, 0, 21, 0, 0, 33, 0, 0, 27, 0)
s = 184: (0, 6, 0, 0, 28, 0, 0, 17, 0, 0, 35, 0)
s = 185: (0, 5, 0, 0, 23, 0, 0, 27, 0, 0, 21, 0)
s = 186: (0, 6, 0, 0, 31, 0, 0, 32, 0, 0, 42, 0)
s = 187: (0, 12, 0, 0, 18, 0, 0, 27, 0, 0, 27, 0)
s = 188: (0, 7, 0, 0, 30, 0, 0, 40, 0, 0, 42, 0)
s = 189: (0, 8, 0, 0, 26, 0, 0, 55, 0, 0, 45, 0)
s = 190: (0, 10, 0, 0, 22, 0, 0, 25, 0, 0, 23, 0)
s = 191: (0, 7, 0, 0, 21, 0, 0, 38, 0, 0, 24, 0)
s = 192: (0, 8, 0, 0, 56, 0, 0, 40, 0, 0, 37, 0)
s = 193: (0, 8, 0, 0, 21, 0, 0, 37, 0, 0, 33, 0)
s = 194: (0, 6, 0, 0, 40, 0, 0, 44, 0, 0, 29, 0)
s = 195: (0, 7, 0, 0, 52, 0, 0, 25, 0, 0, 26, 0)
s = 196: (0, 5, 0, 0, 25, 0, 0, 40, 0, 0, 38, 0)
s = 197: (0, 8, 0, 0, 35, 0, 0, 25, 0, 0, 33, 0)
s = 198: (0, 8, 0, 0, 31, 0, 0, 42, 0, 0, 18, 0)
s = 199: (0, 7, 0, 0, 44, 0, 0, 28, 0, 0, 24, 0)
s = 200: (0, 8, 0, 0, 51, 0, 0, 29, 0, 0, 33, 0)
------------------------------------------------------------------------
RESOURCE k = 3
s = 1: (0, 0, 13, 6, 0, 17, 12, 0, 53, 53, 0, 0)
s = 2: (0, 0, 33, 7, 0, 22, 20, 0, 33, 53, 0, 0)
s = 3: (0, 0, 25, 4, 0, 13, 17, 0, 47, 52, 0, 0)
s = 4: (0, 0, 16, 6, 0, 14, 19, 0, 79, 65, 0, 0)
s = 5: (0, 0, 13, 6, 0, 14, 12, 0, 80, 65, 0, 0)
s = 6: (0, 0, 14, 7, 0, 23, 19, 0, 51, 44, 0, 0)
s = 7: (0, 0, 24, 5, 0, 10, 23, 0, 83, 30, 0, 0)
s = 8: (0, 0, 22, 7, 0, 24, 9, 0, 72, 49, 0, 0)
s = 9: (0, 0, 31, 8, 0, 17, 8, 0, 54, 68, 0, 0)
s = 10: (0, 0, 27, 7, 0, 21, 9, 0, 38, 35, 0, 0)
s = 11: (0, 0, 18, 7, 0, 22, 24, 0, 64, 65, 0, 0)
s = 12: (0, 0, 33, 6, 0, 11, 19, 0, 48, 36, 0, 0)
s = 13: (0, 0, 35, 5, 0, 21, 10, 0, 48, 64, 0, 0)
s = 14: (0, 0, 20, 6, 0, 29, 15, 0, 30, 36, 0, 0)
s = 15: (0, 0, 23, 5, 0, 16, 12, 0, 74, 63, 0, 0)
s = 16: (0, 0, 31, 7, 0, 24, 11, 0, 45, 58, 0, 0)
s = 17: (0, 0, 17, 7, 0, 14, 17, 0, 51, 57, 0, 0)
s = 18: (0, 0, 30, 6, 0, 22, 12, 0, 38, 57, 0, 0)
s = 19: (0, 0, 21, 4, 0, 12, 13, 0, 70, 72, 0, 0)
s = 20: (0, 0, 15, 7, 0, 12, 10, 0, 48, 76, 0, 0)
s = 21: (0, 0, 20, 6, 0, 18, 14, 0, 44, 55, 0, 0)
s = 22: (0, 0, 15, 5, 0, 15, 20, 0, 53, 76, 0, 0)
s = 23: (0, 0, 20, 8, 0, 28, 15, 0, 44, 37, 0, 0)
s = 24: (0, 0, 26, 5, 0, 25, 12, 0, 59, 68, 0, 0)
s = 25: (0, 0, 18, 6, 0, 29, 13, 0, 47, 33, 0, 0)
s = 26: (0, 0, 27, 7, 0, 16, 16, 0, 67, 63, 0, 0)
s = 27: (0, 0, 19, 8, 0, 20, 20, 0, 88, 38, 0, 0)
s = 28: (0, 0, 20, 6, 0, 26, 13, 0, 51, 38, 0, 0)
s = 29: (0, 0, 25, 5, 0, 15, 18, 0, 66, 33, 0, 0)
s = 30: (0, 0, 25, 7, 0, 21, 17, 0, 72, 44, 0, 0)
s = 31: (0, 0, 35, 4, 0, 23, 17, 0, 49, 51, 0, 0)
s = 32: (0, 0, 20, 8, 0, 18, 11, 0, 39, 51, 0, 0)
s = 33: (0, 0, 21, 7, 0, 17, 9, 0, 31, 35, 0, 0)
s = 34: (0, 0, 18, 4, 0, 14, 16, 0, 52, 40, 0, 0)
s = 35: (0, 0, 32, 6, 0, 13, 13, 0, 73, 70, 0, 0)
s = 36: (0, 0, 20, 4, 0, 21, 14, 0, 49, 63, 0, 0)
s = 37: (0, 0, 16, 4, 0, 19, 19, 0, 40, 63, 0, 0)
s = 38: (0, 0, 29, 6, 0, 20, 11, 0, 59, 73, 0, 0)
s = 39: (0, 0, 27, 5, 0, 29, 12, 0, 93, 73, 0, 0)
s = 40: (0, 0, 28, 7, 0, 25, 11, 0, 66, 66, 0, 0)
s = 41: (0, 0, 29, 5, 0, 13, 13, 0, 114, 70, 0, 0)
s = 42: (0, 0, 14, 10, 0, 19, 13, 0, 54, 74, 0, 0)
s = 43: (0, 0, 20, 6, 0, 15, 10, 0, 46, 44, 0, 0)
s = 44: (0, 0, 30, 6, 0, 15, 11, 0, 67, 73, 0, 0)
s = 45: (0, 0, 19, 6, 0, 14, 14, 0, 81, 79, 0, 0)
s = 46: (0, 0, 21, 7, 0, 14, 16, 0, 40, 70, 0, 0)
s = 47: (0, 0, 16, 4, 0, 19, 9, 0, 40, 66, 0, 0)
s = 48: (0, 0, 25, 5, 0, 19, 11, 0, 53, 51, 0, 0)
s = 49: (0, 0, 29, 6, 0, 16, 12, 0, 70, 51, 0, 0)
s = 50: (0, 0, 19, 6, 0, 17, 10, 0, 64, 77, 0, 0)
s = 51: (0, 0, 21, 7, 0, 26, 15, 0, 85, 64, 0, 0)
s = 52: (0, 0, 21, 7, 0, 14, 10, 0, 64, 88, 0, 0)
s = 53: (0, 0, 20, 5, 0, 19, 17, 0, 50, 49, 0, 0)
s = 54: (0, 0, 14, 8, 0, 18, 14, 0, 92, 51, 0, 0)
s = 55: (0, 0, 25, 8, 0, 15, 12, 0, 49, 52, 0, 0)
s = 56: (0, 0, 20, 8, 0, 19, 10, 0, 37, 52, 0, 0)
s = 57: (0, 0, 20, 7, 0, 16, 18, 0, 36, 35, 0, 0)
s = 58: (0, 0, 19, 10, 0, 20, 16, 0, 58, 103, 0, 0)
s = 59: (0, 0, 23, 9, 0, 23, 25, 0, 38, 37, 0, 0)
s = 60: (0, 0, 13, 7, 0, 16, 21, 0, 65, 48, 0, 0)
s = 61: (0, 0, 21, 6, 0, 13, 21, 0, 81, 38, 0, 0)
s = 62: (0, 0, 26, 5, 0, 23, 12, 0, 35, 60, 0, 0)
s = 63: (0, 0, 26, 7, 0, 21, 9, 0, 77, 69, 0, 0)
s = 64: (0, 0, 23, 10, 0, 15, 21, 0, 31, 79, 0, 0)
s = 65: (0, 0, 31, 5, 0, 22, 11, 0, 38, 83, 0, 0)
s = 66: (0, 0, 13, 5, 0, 13, 13, 0, 72, 63, 0, 0)
s = 67: (0, 0, 16, 7, 0, 17, 18, 0, 55, 61, 0, 0)
s = 68: (0, 0, 24, 9, 0, 25, 10, 0, 57, 47, 0, 0)
s = 69: (0, 0, 26, 9, 0, 19, 14, 0, 60, 42, 0, 0)
s = 70: (0, 0, 25, 5, 0, 16, 17, 0, 42, 51, 0, 0)
s = 71: (0, 0, 25, 9, 0, 19, 13, 0, 56, 37, 0, 0)
s = 72: (0, 0, 20, 5, 0, 25, 14, 0, 86, 63, 0, 0)
s = 73: (0, 0, 18, 9, 0, 16, 9, 0, 53, 88, 0, 0)
s = 74: (0, 0, 16, 8, 0, 20, 18, 0, 57, 72, 0, 0)
s = 75: (0, 0, 15, 5, 0, 17, 14, 0, 63, 60, 0, 0)
s = 76: (0, 0, 31, 8, 0, 17, 11, 0, 61, 75, 0, 0)
s = 77: (0, 0, 17, 7, 0, 14, 10, 0, 70, 54, 0, 0)
s = 78: (0, 0, 14, 7, 0, 18, 13, 0, 82, 50, 0, 0)
s = 79: (0, 0, 26, 9, 0, 14, 10, 0, 45, 51, 0, 0)
s = 80: (0, 0, 14, 8, 0, 18, 10, 0, 36, 71, 0, 0)
s = 81: (0, 0, 15, 7, 0, 30, 14, 0, 74, 61, 0, 0)
s = 82: (0, 0, 14, 5, 0, 12, 13, 0, 77, 47, 0, 0)
s = 83: (0, 0, 17, 8, 0, 23, 17, 0, 57, 66, 0, 0)
s = 84: (0, 0, 17, 5, 0, 28, 10, 0, 48, 45, 0, 0)
s = 85: (0, 0, 23, 7, 0, 11, 17, 0, 69, 35, 0, 0)
s = 86: (0, 0, 17, 7, 0, 28, 21, 0, 65, 42, 0, 0)
s = 87: (0, 0, 17, 5, 0, 18, 17, 0, 58, 57, 0, 0)
s = 88: (0, 0, 26, 8, 0, 19, 15, 0, 49, 64, 0, 0)
s = 89: (0, 0, 22, 6, 0, 22, 12, 0, 37, 74, 0, 0)
s = 90: (0, 0, 13, 5, 0, 15, 19, 0, 47, 42, 0, 0)
s = 91: (0, 0, 13, 7, 0, 19, 13, 0, 35, 72, 0, 0)
s = 92: (0, 0, 21, 5, 0, 24, 13, 0, 70, 54, 0, 0)
s = 93: (0, 0, 12, 4, 0, 25, 10, 0, 31, 59, 0, 0)
s = 94: (0, 0, 27, 5, 0, 16, 14, 0, 82, 49, 0, 0)
s = 95: (0, 0, 16, 6, 0, 22, 11, 0, 63, 43, 0, 0)
s = 96: (0, 0, 25, 5, 0, 27, 15, 0, 55, 65, 0, 0)
s = 97: (0, 0, 24, 6, 0, 15, 18, 0, 34, 37, 0, 0)
s = 98: (0, 0, 23, 11, 0, 20, 13, 0, 62, 68, 0, 0)
s = 99: (0, 0, 26, 5, 0, 19, 10, 0, 45, 50, 0, 0)
s = 100: (0, 0, 18, 4, 0, 12, 24, 0, 70, 56, 0, 0)
s = 101: (0, 0, 19, 7, 0, 22, 12, 0, 46, 32, 0, 0)
s = 102: (0, 0, 17, 5, 0, 28, 13, 0, 50, 74, 0, 0)
s = 103: (0, 0, 30, 7, 0, 22, 13, 0, 59, 43, 0, 0)
s = 104: (0, 0, 28, 8, 0, 23, 12, 0, 56, 61, 0, 0)
s = 105: (0, 0, 22, 7, 0, 27, 19, 0, 29, 55, 0, 0)
s = 106: (0, 0, 21, 6, 0, 20, 13, 0, 36, 46, 0, 0)
s = 107: (0, 0, 24, 7, 0, 18, 10, 0, 63, 62, 0, 0)
s = 108: (0, 0, 20, 8, 0, 12, 17, 0, 44, 73, 0, 0)
s = 109: (0, 0, 20, 8, 0, 17, 13, 0, 70, 48, 0, 0)
s = 110: (0, 0, 16, 9, 0, 20, 14, 0, 84, 37, 0, 0)
s = 111: (0, 0, 20, 6, 0, 13, 15, 0, 74, 60, 0, 0)
s = 112: (0, 0, 25, 6, 0, 24, 8, 0, 44, 48, 0, 0)
s = 113: (0, 0, 24, 5, 0, 17, 13, 0, 32, 49, 0, 0)
s = 114: (0, 0, 11, 9, 0, 13, 23, 0, 57, 74, 0, 0)
s = 115: (0, 0, 20, 6, 0, 13, 26, 0, 54, 53, 0, 0)
s = 116: (0, 0, 20, 5, 0, 25, 13, 0, 52, 84, 0, 0)
s = 117: (0, 0, 18, 7, 0, 31, 12, 0, 51, 55, 0, 0)
s = 118: (0, 0, 20, 5, 0, 18, 20, 0, 82, 73, 0, 0)
s = 119: (0, 0, 22, 7, 0, 22, 15, 0, 62, 42, 0, 0)
s = 120: (0, 0, 15, 4, 0, 16, 14, 0, 73, 70, 0, 0)
s = 121: (0, 0, 15, 9, 0, 26, 16, 0, 70, 32, 0, 0)
s = 122: (0, 0, 12, 5, 0, 28, 10, 0, 37, 42, 0, 0)
s = 123: (0, 0, 14, 5, 0, 14, 18, 0, 46, 71, 0, 0)
s = 124: (0, 0, 15, 6, 0, 14, 17, 0, 45, 57, 0, 0)
s = 125: (0, 0, 22, 8, 0, 27, 8, 0, 54, 47, 0, 0)
s = 126: (0, 0, 32, 6, 0, 22, 8, 0, 58, 53, 0, 0)
s = 127: (0, 0, 28, 5, 0, 10, 22, 0, 63, 50, 0, 0)
s = 128: (0, 0, 20, 7, 0, 10, 24, 0, 64, 78, 0, 0)
s = 129: (0, 0, 20, 9, 0, 19, 9, 0, 69, 58, 0, 0)
s = 130: (0, 0, 23, 5, 0, 20, 10, 0, 51, 85, 0, 0)
s = 131: (0, 0, 28, 7, 0, 21, 15, 0, 43, 30, 0, 0)
s = 132: (0, 0, 26, 6, 0, 25, 19, 0, 47, 68, 0, 0)
s = 133: (0, 0, 29, 10, 0, 17, 22, 0, 45, 46, 0, 0)
s = 134: (0, 0, 27, 7, 0, 16, 9, 0, 108, 39, 0, 0)
s = 135: (0, 0, 31, 4, 0, 15, 11, 0, 100, 82, 0, 0)
s = 136: (0, 0, 14, 5, 0, 20, 16, 0, 33, 59, 0, 0)
s = 137: (0, 0, 31, 6, 0, 19, 17, 0, 60, 56, 0, 0)
s = 138: (0, 0, 32, 8, 0, 15, 12, 0, 38, 47, 0, 0)
s = 139: (0, 0, 15, 4, 0, 11, 13, 0, 46, 65, 0, 0)
s = 140: (0, 0, 18, 11, 0, 17, 8, 0, 83, 61, 0, 0)
s = 141: (0, 0, 27, 5, 0, 18, 13, 0, 81, 54, 0, 0)
s = 142: (0, 0, 23, 6, 0, 23, 17, 0, 57, 46, 0, 0)
s = 143: (0, 0, 23, 5, 0, 26, 12, 0, 33, 58, 0, 0)
s = 144: (0, 0, 12, 4, 0, 20, 21, 0, 47, 44, 0, 0)
s = 145: (0, 0, 26, 6, 0, 16, 11, 0, 55, 47, 0, 0)
s = 146: (0, 0, 18, 6, 0, 19, 12, 0, 55, 57, 0, 0)
s = 147: (0, 0, 17, 7, 0, 23, 10, 0, 50, 90, 0, 0)
s = 148: (0, 0, 23, 8, 0, 21, 14, 0, 91, 108, 0, 0)
s = 149: (0, 0, 25, 4, 0, 17, 12, 0, 47, 57, 0, 0)
s = 150: (0, 0, 16, 6, 0, 15, 20, 0, 83, 50, 0, 0)
s = 151: (0, 0, 16, 6, 0, 17, 10, 0, 75, 68, 0, 0)
s = 152: (0, 0, 13, 8, 0, 16, 12, 0, 36, 61, 0, 0)
s = 153: (0, 0, 24, 7, 0, 16, 10, 0, 48, 44, 0, 0)
s = 154: (0, 0, 25, 6, 0, 12, 19, 0, 35, 67, 0, 0)
s = 155: (0, 0, 23, 8, 0, 15, 13, 0, 39, 63, 0, 0)
s = 156: (0, 0, 19, 11, 0, 16, 14, 0, 32, 64, 0, 0)
s = 157: (0, 0, 26, 5, 0, 15, 13, 0, 65, 73, 0, 0)
s = 158: (0, 0, 17, 8, 0, 17, 11, 0, 41, 45, 0, 0)
s = 159: (0, 0, 38, 10, 0, 16, 16, 0, 76, 52, 0, 0)
s = 160: (0, 0, 16, 8, 0, 20, 19, 0, 36, 62, 0, 0)
s = 161: (0, 0, 27, 7, 0, 26, 15, 0, 48, 55, 0, 0)
s = 162: (0, 0, 20, 6, 0, 24, 10, 0, 87, 44, 0, 0)
s = 163: (0, 0, 23, 7, 0, 21, 14, 0, 44, 63, 0, 0)
s = 164: (0, 0, 20, 5, 0, 22, 9, 0, 46, 39, 0, 0)
s = 165: (0, 0, 20, 5, 0, 14, 15, 0, 64, 80, 0, 0)
s = 166: (0, 0, 44, 9, 0, 21, 11, 0, 59, 92, 0, 0)
s = 167: (0, 0, 13, 6, 0, 25, 12, 0, 75, 29, 0, 0)
s = 168: (0, 0, 18, 5, 0, 17, 13, 0, 61, 61, 0, 0)
s = 169: (0, 0, 25, 5, 0, 10, 18, 0, 37, 60, 0, 0)
s = 170: (0, 0, 32, 5, 0, 23, 22, 0, 46, 44, 0, 0)
s = 171: (0, 0, 24, 7, 0, 16, 14, 0, 73, 72, 0, 0)
s = 172: (0, 0, 22, 4, 0, 26, 18, 0, 35, 42, 0, 0)
s = 173: (0, 0, 15, 8, 0, 15, 16, 0, 34, 94, 0, 0)
s = 174: (0, 0, 28, 6, 0, 14, 17, 0, 42, 43, 0, 0)
s = 175: (0, 0, 16, 4, 0, 20, 13, 0, 68, 67, 0, 0)
s = 176: (0, 0, 23, 10, 0, 25, 14, 0, 45, 45, 0, 0)
s = 177: (0, 0, 22, 10, 0, 17, 14, 0, 93, 81, 0, 0)
s = 178: (0, 0, 33, 9, 0, 18, 16, 0, 44, 89, 0, 0)
s = 179: (0, 0, 20, 7, 0, 10, 14, 0, 57, 73, 0, 0)
s = 180: (0, 0, 19, 4, 0, 19, 10, 0, 68, 62, 0, 0)
s = 181: (0, 0, 22, 5, 0, 12, 17, 0, 68, 41, 0, 0)
s = 182: (0, 0, 27, 5, 0, 16, 15, 0, 81, 56, 0, 0)
s = 183: (0, 0, 22, 6, 0, 24, 8, 0, 52, 49, 0, 0)
s = 184: (0, 0, 19, 8, 0, 19, 19, 0, 52, 51, 0, 0)
s = 185: (0, 0, 22, 7, 0, 23, 12, 0, 57, 48, 0, 0)
s = 186: (0, 0, 15, 12, 0, 14, 25, 0, 37, 44, 0, 0)
s = 187: (0, 0, 17, 9, 0, 21, 12, 0, 59, 83, 0, 0)
s = 188: (0, 0, 20, 8, 0, 23, 17, 0, 52, 80, 0, 0)
s = 189: (0, 0, 29, 8, 0, 19, 20, 0, 50, 36, 0, 0)
s = 190: (0, 0, 18, 9, 0, 25, 12, 0, 42, 63, 0, 0)
s = 191: (0, 0, 23, 4, 0, 17, 19, 0, 64, 56, 0, 0)
s = 192: (0, 0, 16, 5, 0, 22, 14, 0, 44, 80, 0, 0)
s = 193: (0, 0, 34, 5, 0, 19, 18, 0, 61, 68, 0, 0)
s = 194: (0, 0, 27, 8, 0, 18, 14, 0, 88, 43, 0, 0)
s = 195: (0, 0, 16, 7, 0, 19, 19, 0, 36, 62, 0, 0)
s = 196: (0, 0, 14, 7, 0, 20, 15, 0, 79, 40, 0, 0)
s = 197: (0, 0, 16, 6, 0, 18, 12, 0, 61, 88, 0, 0)
s = 198: (0, 0, 19, 6, 0, 12, 17, 0, 43, 35, 0, 0)
s = 199: (0, 0, 15, 10, 0, 12, 23, 0, 81, 72, 0, 0)
s = 200: (0, 0, 17, 8, 0, 16, 10, 0, 55, 37, 0, 0)
************************************************************************
ES/LS-VALUES:
jobnr.   ES(i)    LS(i)
------------------------------------------------------------------------
  0        0        0
  1        0       68
  2        0       63
  3        0       66
  4        4       73
  5        6       73
  6        6       70
  7        6       73
  8        9       74
  9        9       77
 10       13       81
 11       25       91
************************************************************************
BIG-M-VALUES:
M1 = 73, M2 = 333
************************************************************************
